numberOfDrones = 8; % Number of drones
numberOfRechargePoints = 6; % Number of recharge points
numberOfUsersClusters = 40; % Number of user clusters
numberOfHASPs = 2;
M1 = 100000; % Large enough value
XY = 20;
CellDist = 50;

% Data
RHASP = 10;
Ri = [4, 4, 4, 4, 4, 4, 4, 4]; % Coverage radius of drones
Bi = [25, 25, 25, 25, 25, 25, 25, 25]; % Battery capacity of drones
Ci = [1, 1, 1, 1, 1, 1, 1, 1]; % Consumption per unit distance of drones
NUsers = [5, 7, 10, 9, 4, 3, 2, 6, 8, 11, 5, 7, 10, 9, 4, 3, 2, 6, 8, 11, 5, 7, 10, 9, 4, 3, 2, 6, 8, 11, 5, 7, 10, 9, 4, 3, 2, 6, 8, 11]; % Number of users in clusters
UserClusterPosition = [| 2, 3
       | 5, 7
       | 4, 15
       | 16, 4
       | 14, 11
       | 17, 18
       | 10, 12
       | 8, 18
       | 19, 6
       | 12, 13
       | 3, 5
       | 7, 9
       | 6, 16
       | 18, 5
       | 15, 12
       | 18, 19
       | 20, 13
       | 19, 8
       | 13, 14
       | 4, 17
       | 5, 9
       | 7, 11
       | 6, 18
       | 18, 7
       | 15, 13
       | 18, 20
       | 20, 14
       | 19, 9
       | 14, 15
       | 5, 17
       | 7, 19
       | 6, 20
       | 3, 20
       | 9, 19
       | 11, 18
       | 10, 19
       | 12, 20
       | 9, 9
       | 11, 8
       | 10, 9 |]; % Position of user clusters
